mixintcount/benchmarks/random_v2l/5_5_1584.in
20 7
#	x1	x2	x3	x4	x5;		0 = Real; 1 = Integer
	1	1	1	1	1
1	-3	10	6	0	5	570
1	8	-9	-7	-9	-6	-794
1	-2	-4	1	-2	-3	128
1	-5	-5	3	1	-5	664
1	1	-5	2	-9	-4	775
1	-7	4	9	8	-9	1404
1	10	7	2	-8	8	1412
1	-2	-6	10	7	2	479
1	4	6	0	-6	-4	-536
1	-5	7	8	6	6	-1521
1	1	0	0	0	0	1584
1	-1	0	0	0	0	1584
1	0	1	0	0	0	1584
1	0	-1	0	0	0	1584
1	0	0	1	0	0	1584
1	0	0	-1	0	0	1584
1	0	0	0	1	0	1584
1	0	0	0	-1	0	1584
1	0	0	0	0	1	1584
1	0	0	0	0	-1	1584
